100
100
3000 3000 3000 3000 3000 3000 3000 3000 3000 3000 3000 3000 3000 3000 3000 3000 3000 3000 3000 3000 3000 3000 3000 3000 3000 3000 3000 3000 3000 3000 3000 3000 3000 3000 3000 3000 3000 3000 3000 3000 3000 3000 3000 3000 3000 3000 3000 3000 3000 3000 3000 3000 3000 3000 3000 3000 3000 3000 3000 3000 3000 3000 3000 3000 3000 3000 3000 3000 3000 3000 3000 3000 3000 3000 3000 3000 3000 3000 3000 3000 3000 3000 3000 3000 3000 3000 3000 3000 3000 3000 3000 3000 3000 3000 3000 3000 3000 3000 3000 3000
0 29 1
0 36 3
0 37 0
0 47 2
0 56 4
0 69 3
0 82 2
0 83 1
0 85 3
0 89 2
1 17 2
1 18 4
1 19 0
1 27 0
1 29 1
1 37 2
1 41 0
1 50 2
1 57 3
1 61 3
2 11 4
2 13 0
2 14 2
2 21 3
2 24 4
2 46 4
2 51 4
2 65 2
2 66 0
2 68 4
3 11 0
3 34 4
3 42 4
3 46 2
3 67 3
3 73 1
3 74 1
3 77 4
3 80 2
3 88 2
4 4 1
4 6 2
4 7 1
4 19 3
4 28 2
4 36 1
4 44 3
4 47 4
4 59 4
4 67 1
5 5 2
5 12 0
5 26 1
5 40 1
5 48 4
5 59 1
5 67 4
5 71 1
5 72 4
5 78 1
6 15 2
6 23 1
6 25 3
6 29 0
6 42 2
6 57 0
6 72 1
6 75 2
6 80 0
6 84 4
7 9 3
7 10 0
7 17 3
7 24 0
7 28 0
7 55 0
7 73 2
7 89 3
7 94 0
7 96 2
8 3 3
8 34 0
8 42 1
8 54 0
8 76 4
8 87 0
8 91 3
8 93 3
8 97 3
8 98 1
9 20 4
9 21 0
9 26 3
9 39 2
9 49 2
9 74 1
9 84 1
9 85 2
9 88 2
9 89 0
10 15 2
10 22 4
10 23 2
10 41 1
10 44 0
10 53 4
10 62 3
10 63 1
10 70 2
10 74 1
11 2 2
11 16 4
11 23 2
11 58 1
11 60 4
11 61 1
11 63 3
11 78 0
11 85 2
11 92 3
12 10 1
12 13 0
12 28 0
12 29 2
12 32 4
12 40 0
12 41 3
12 58 3
12 72 2
12 78 3
13 34 0
13 37 1
13 46 2
13 59 3
13 63 0
13 79 1
13 81 2
13 82 2
13 94 0
13 95 2
14 8 2
14 20 3
14 38 3
14 52 3
14 60 2
14 66 3
14 93 1
14 95 0
14 96 3
14 97 0
15 35 4
15 53 2
15 63 3
15 66 2
15 71 1
15 79 2
15 89 4
15 90 1
15 91 4
15 93 4
16 2 2
16 7 3
16 12 0
16 13 2
16 24 2
16 32 3
16 49 3
16 54 1
16 64 3
16 79 1
17 6 3
17 8 0
17 38 4
17 56 1
17 60 2
17 62 0
17 82 0
17 86 1
17 91 0
17 95 2
18 1 3
18 8 4
18 14 3
18 15 2
18 21 4
18 30 3
18 40 1
18 43 3
18 44 1
18 49 4
19 1 4
19 6 1
19 8 4
19 35 2
19 53 2
19 65 2
19 73 2
19 77 1
19 96 0
19 97 0
20 0 2
20 19 3
20 39 0
20 54 0
20 55 2
20 61 4
20 63 3
20 68 0
20 83 2
20 86 3
21 2 1
21 21 0
21 33 1
21 51 1
21 63 1
21 73 4
21 77 0
21 78 1
21 83 2
21 85 4
22 9 2
22 26 0
22 30 0
22 46 4
22 48 0
22 50 0
22 58 1
22 60 3
22 68 3
22 78 4
23 5 3
23 9 0
23 38 0
23 55 0
23 67 4
23 71 0
23 76 4
23 78 4
23 79 3
23 80 2
24 1 2
24 2 2
24 11 0
24 45 4
24 46 1
24 55 3
24 62 1
24 71 3
24 75 1
24 80 1
25 7 0
25 26 4
25 41 3
25 56 0
25 58 2
25 73 3
25 75 3
25 91 0
25 95 0
25 98 4
26 0 0
26 10 0
26 20 2
26 21 2
26 32 2
26 45 1
26 56 4
26 67 2
26 81 3
26 82 3
27 3 2
27 4 0
27 23 0
27 29 0
27 32 1
27 36 2
27 40 3
27 42 2
27 47 2
27 81 2
28 0 3
28 27 4
28 31 1
28 38 0
28 43 0
28 77 0
28 79 3
28 85 2
28 89 2
28 97 0
29 6 3
29 8 2
29 11 1
29 14 4
29 19 1
29 36 2
29 39 4
29 43 1
29 48 2
29 53 4
30 1 2
30 5 0
30 12 2
30 18 2
30 24 1
30 28 1
30 45 3
30 46 1
30 49 2
30 58 1
31 16 2
31 54 1
31 58 2
31 59 3
31 69 3
31 73 2
31 86 2
31 91 1
31 98 1
31 99 3
32 4 2
32 9 3
32 12 2
32 15 0
32 18 1
32 51 2
32 68 0
32 87 1
32 91 1
32 94 1
33 8 4
33 12 2
33 13 0
33 33 3
33 42 4
33 54 3
33 58 1
33 62 0
33 67 1
33 84 1
34 0 2
34 9 0
34 37 0
34 60 4
34 68 1
34 80 0
34 81 0
34 89 2
34 92 1
34 93 1
35 19 2
35 26 3
35 31 3
35 32 0
35 34 0
35 45 0
35 62 3
35 78 3
35 87 1
35 92 4
36 5 0
36 7 1
36 28 0
36 29 3
36 30 0
36 36 1
36 38 3
36 60 0
36 66 2
36 84 2
37 9 0
37 14 0
37 18 0
37 20 4
37 48 4
37 56 1
37 61 2
37 64 0
37 70 1
37 82 1
38 7 0
38 18 1
38 25 1
38 30 1
38 44 4
38 47 3
38 49 3
38 76 1
38 81 4
38 95 0
39 6 2
39 20 3
39 22 4
39 24 0
39 44 0
39 48 1
39 49 0
39 62 1
39 69 0
39 72 3
40 5 1
40 25 0
40 28 2
40 38 0
40 51 1
40 53 1
40 55 0
40 56 2
40 57 4
40 66 0
41 12 0
41 32 0
41 36 1
41 51 0
41 57 4
41 65 4
41 68 2
41 69 0
41 72 1
41 81 2
42 6 1
42 15 2
42 17 2
42 20 1
42 30 4
42 35 3
42 37 0
42 57 1
42 65 2
42 66 4
43 1 3
43 32 0
43 66 4
43 67 3
43 70 0
43 72 2
43 74 3
43 79 1
43 92 1
43 98 4
44 6 0
44 7 2
44 10 0
44 24 4
44 64 3
44 75 3
44 77 1
44 82 2
44 88 4
44 99 3
45 11 0
45 27 4
45 31 2
45 34 2
45 41 2
45 61 0
45 68 4
45 79 4
45 83 1
45 86 4
46 11 4
46 18 2
46 22 3
46 25 2
46 27 0
46 32 4
46 33 0
46 48 3
46 62 1
46 69 4
47 10 4
47 25 3
47 33 4
47 39 4
47 43 2
47 61 3
47 68 2
47 85 3
47 87 3
47 96 0
48 1 2
48 4 4
48 28 2
48 35 2
48 42 3
48 55 4
48 80 0
48 86 1
48 94 4
48 96 0
49 2 2
49 15 1
49 20 1
49 26 1
49 28 2
49 47 0
49 53 0
49 59 1
49 78 3
49 91 0
50 0 2
50 15 0
50 26 3
50 29 1
50 31 2
50 43 1
50 44 2
50 47 3
50 63 2
50 65 1
51 11 3
51 17 4
51 27 3
51 37 0
51 47 4
51 57 0
51 69 2
51 74 2
51 76 4
51 93 1
52 21 3
52 37 3
52 40 0
52 42 4
52 45 2
52 53 3
52 65 1
52 87 1
52 88 2
52 90 4
53 7 2
53 16 1
53 18 3
53 21 4
53 40 3
53 50 0
53 65 3
53 73 2
53 79 0
53 91 4
54 3 0
54 14 2
54 25 1
54 30 4
54 41 0
54 50 1
54 69 4
54 84 2
54 86 3
54 90 4
55 9 3
55 14 0
55 27 2
55 70 0
55 76 0
55 94 4
55 96 4
55 97 4
55 98 4
55 99 0
56 11 0
56 17 2
56 23 2
56 35 4
56 68 1
56 71 0
56 75 2
56 77 2
56 88 2
56 92 3
57 19 1
57 29 3
57 37 0
57 43 2
57 54 2
57 57 0
57 66 1
57 67 4
57 71 0
57 73 4
58 9 4
58 13 1
58 22 1
58 31 4
58 40 3
58 41 1
58 51 4
58 59 3
58 64 0
58 78 3
59 4 0
59 11 3
59 17 2
59 39 4
59 40 3
59 46 4
59 77 4
59 90 3
59 95 3
59 99 2
60 23 4
60 25 1
60 35 4
60 36 2
60 39 2
60 45 3
60 61 0
60 69 0
60 70 4
60 76 1
61 0 1
61 2 4
61 10 0
61 32 0
61 33 0
61 42 3
61 44 4
61 49 3
61 58 1
61 63 4
62 14 2
62 16 3
62 39 4
62 41 3
62 76 3
62 81 3
62 83 1
62 85 0
62 86 3
62 87 2
63 1 2
63 39 3
63 55 2
63 57 2
63 60 0
63 77 3
63 90 4
63 92 1
63 93 2
63 94 2
64 2 3
64 3 1
64 6 2
64 10 1
64 14 4
64 15 2
64 27 1
64 31 0
64 48 3
64 53 1
65 4 2
65 8 0
65 14 0
65 21 1
65 23 2
65 27 3
65 33 0
65 54 0
65 61 3
65 75 4
66 38 1
66 89 1
66 92 4
66 93 0
66 94 1
66 95 1
66 96 2
66 97 4
66 98 0
66 99 1
67 2 3
67 27 4
67 28 3
67 30 3
67 35 0
67 45 0
67 55 3
67 56 1
67 71 0
67 73 4
68 18 2
68 22 4
68 23 0
68 56 2
68 62 2
68 70 4
68 81 3
68 83 3
68 84 3
68 91 2
69 13 0
69 18 4
69 33 4
69 54 3
69 70 4
69 71 3
69 76 2
69 88 0
69 94 3
69 97 3
70 1 4
70 12 4
70 29 1
70 39 4
70 52 1
70 56 3
70 59 3
70 60 4
70 72 2
70 82 4
71 24 3
71 30 0
71 49 0
71 52 4
71 64 4
71 70 4
71 72 2
71 73 4
71 81 4
71 83 2
72 10 2
72 25 2
72 38 3
72 43 4
72 62 4
72 74 0
72 80 0
72 84 0
72 89 1
72 93 0
73 0 2
73 3 3
73 34 0
73 38 3
73 47 3
73 50 4
73 51 3
73 57 0
73 64 2
73 67 1
74 16 1
74 22 1
74 24 3
74 53 4
74 85 2
74 86 4
74 93 3
74 95 1
74 96 2
74 99 1
75 1 0
75 8 1
75 17 2
75 47 3
75 58 0
75 59 1
75 65 4
75 67 3
75 70 1
75 84 1
76 3 1
76 4 3
76 9 4
76 21 4
76 26 1
76 31 3
76 40 2
76 45 4
76 65 2
76 68 3
77 5 4
77 19 1
77 22 3
77 46 3
77 47 4
77 48 4
77 50 1
77 52 2
77 53 1
77 58 0
78 14 3
78 16 0
78 18 2
78 31 1
78 37 1
78 50 4
78 70 2
78 74 4
78 77 4
78 85 3
79 0 0
79 12 1
79 17 1
79 23 2
79 26 4
79 32 3
79 34 1
79 36 0
79 49 3
79 64 3
80 4 2
80 5 2
80 38 1
80 42 2
80 52 1
80 57 0
80 75 0
80 85 2
80 87 0
80 90 3
81 0 3
81 4 0
81 7 0
81 8 4
81 36 0
81 42 3
81 48 2
81 49 0
81 52 2
81 74 1
82 7 3
82 13 2
82 16 1
82 31 4
82 33 2
82 35 4
82 51 0
82 72 3
82 74 0
82 80 2
83 1 4
83 10 3
83 13 4
83 66 1
83 81 2
83 82 3
83 87 2
83 88 3
83 95 1
83 97 1
84 8 4
84 17 3
84 19 1
84 26 4
84 45 1
84 52 4
84 61 2
84 69 3
84 78 2
84 82 1
85 13 4
85 20 2
85 31 2
85 50 3
85 79 1
85 83 4
85 84 3
85 87 3
85 90 4
85 91 3
86 5 1
86 15 2
86 27 4
86 33 1
86 35 0
86 40 3
86 50 0
86 54 0
86 59 1
86 72 1
87 3 4
87 22 4
87 30 4
87 36 2
87 39 2
87 80 4
87 88 2
87 90 1
87 96 2
87 98 2
88 22 4
88 43 0
88 50 0
88 83 3
88 88 1
88 90 2
88 94 2
88 95 1
88 97 1
88 99 2
89 19 3
89 52 3
89 55 1
89 62 0
89 82 1
89 86 3
89 90 2
89 92 1
89 98 0
89 99 1
90 5 0
90 9 0
90 33 3
90 34 4
90 43 2
90 59 3
90 63 3
90 64 1
90 75 1
90 79 4
91 2 2
91 20 2
91 21 0
91 51 2
91 75 3
91 94 2
91 96 0
91 97 1
91 98 3
91 99 3
92 3 1
92 15 3
92 28 3
92 61 4
92 63 0
92 88 0
92 89 1
92 92 3
92 98 1
92 99 0
93 10 2
93 11 2
93 16 3
93 25 0
93 34 2
93 44 4
93 45 4
93 80 2
93 89 3
93 92 2
94 5 0
94 6 4
94 12 2
94 13 3
94 20 1
94 41 4
94 44 3
94 46 3
94 64 2
94 84 1
95 6 0
95 7 1
95 17 4
95 22 0
95 43 1
95 44 1
95 46 0
95 51 3
95 54 2
95 55 1
96 3 0
96 19 0
96 24 2
96 29 4
96 37 2
96 52 1
96 60 2
96 65 0
96 69 1
96 83 4
97 4 4
97 16 4
97 23 1
97 56 1
97 60 0
97 64 0
97 71 3
97 74 0
97 75 1
97 76 1
98 2 0
98 3 2
98 24 3
98 25 2
98 30 2
98 34 1
98 35 3
98 41 1
98 48 1
98 52 4
99 0 0
99 12 1
99 16 0
99 66 1
99 71 4
99 76 0
99 77 3
99 86 4
99 87 0
99 93 3
